NAME : XML100_1222_11
DIMENSION : 101
NB_CLUSTERS : 5
CLUSTERING_ALG : KMeans
CLUSTERING_PARAMS : k(4)
CLUSTERS
1 0
2 3 5 7 9 11 14 16 18 20 21 23 24 25 28 29 33 36 39 43 45 50 51 57 58 59 64 67 68 69 72 75 76 77 79 80 81 82 83 85 87 90 92 97 98 99
3 6 8 13 17 19 26 27 30 31 34 35 40 46 47 49 54 55 61 62 66 70 71 78 88 93 96 100
4 1 2 10 12 15 22 32 37 38 41 44 48 52 60 65 74 84 95
5 4 42 53 56 63 73 86 89 91 94
EOF